\ SCIP STATISTICS
\   Problem name     : MILP
\   Variables        : 6 (0 binary, 0 integer, 0 implicit integer, 6 continuous)
\   Constraints      : 5
Minimize
 Obj: +1 C146(2)
Subject to
 (85): -1 C35(6) -1 C130(2) = +1
 (179): +128 C146(2) +128 C145(2) = +1
 (182): -1 C130(2) -1 C145(2) = +1
 (84): +1 C126(3) -1 C35(6) = +0
 (99): +8000000 C41(2) -1 C126(3) = +0
Bounds
 C35(6) free
 C126(3) free
 C145(2) free
 C130(2) free
 C41(2) free
End
